c array.sh: path:     /data/qbf/qbf20/PCNF/W4-Umbrella_tbm_25.tex.moduleQ3.7S.000003.qdimacs
c array.sh: name:     W4-Umbrella_tbm_25.tex.moduleQ3.7S.000003
c array.sh: task:     117
c array.sh: host:     c3n21
c array.sh: uname:    Linux c3n21 4.15.0-135-generic #139-Ubuntu SMP Mon Jan 18 17:38:24 UTC 2021 x86_64 x86_64 x86_64 GNU/Linux
c array.sh: start:    Thu Feb 18 10:08:08 CET 2021
c array.sh: noturbo:  1
c array.sh: governor: 32 performance
c array.sh: tmp:      1%
c array.sh: unzipped: /tmp/local-unzipped-18838260-117-W4-Umbrella_tbm_25.tex.moduleQ3.7S.000003.cnf
*** qbfcert: using tmp directory:
*** qbfcert:   /tmp
trace-size: 248022267
solving-res 20
proof-size: 9140621
cert-size: 17403
cert-header: aag 2848 2371 0 230 427
merged-header: p cnf 26141 63206
merged-size: 1010145
c ---- [ banner ] ------------------------------------------------------------
c
c KISSAT SAT Solver
c Copyright (c) 2019-2020 Armin Biere JKU Linz
c 
c Version 1.0.3 59813addcacc4d6fb880ebdd63685600475aa940
c gcc (Ubuntu 7.5.0-3ubuntu1~18.04) 7.5.0 -W -Wall -O3 -DNEMBEDDED -DNDEBUG -DNMETRICS -DNSTATISTICS
c Sun Feb 14 23:58:54 CET 2021 Linux cluster3 4.15.0-135-generic x86_64
c
c ---- [ parsing ] -----------------------------------------------------------
c
c opened and reading DIMACS file:
c 
c   /tmp/qbfcert_merged_cnf11419.cnf
c 
c parsed 'p cnf 26141 63206' header
c closing input after reading 1010145 bytes (986 KB)
c finished parsing after 0.02 seconds
c
c ---- [ solving ] -----------------------------------------------------------
c
c  seconds reductions redundant irredundant
c         MB   restarts    trail     variables
c          level  conflicts   glue        remaining
c
c *  0.02  6 0  0  0   0   0 0% 0 63121 3279 13%
c {  0.02  6 0  0  0   0   0 0% 0 63121 3279 13%
c i  0.02  6 1  0  0   1   0 0% 0 63121 3277 13%
c i  0.02  6 2  0  1   2   0 1% 0 63121 3275 13%
c i  0.02  6 2  0  2   3   0 1% 0 63121 3273 13%
c i  0.02  6 3  0  3   4   0 1% 0 63121 3271 13%
c i  0.02  6 3  0  4   5   0 2% 0 63121 3269 13%
c i  0.02  6 4  0  5   6   0 5% 0 63121 3267 12%
c i  0.02  6 5  0  6   7   0 8% 0 63121 3265 12%
c i  0.02  6 5  0  7   8   0 9% 0 63121 3263 12%
c i  0.02  6 6  0  8   9   0 10% 0 63121 3261 12%
c i  0.02  6 6  0  9  10   0 12% 0 63121 3259 12%
c i  0.02  6 7  0 10  11   0 15% 0 63121 3257 12%
c i  0.02  6 7  0 11  12   0 17% 0 63121 3255 12%
c i  0.02  6 8  0 12  13   0 21% 0 63121 3253 12%
c i  0.02  6 9  0 13  14   0 25% 0 63121 3251 12%
c i  0.02  6 10  0 14  15   0 28% 0 63121 3249 12%
c i  0.02  6 10  0 15  16   0 29% 0 63121 3247 12%
c i  0.02  6 10  0 16  17   0 31% 0 63121 3245 12%
c i  0.02  6 11  0 17  18   0 32% 0 63121 3243 12%
c
c  seconds  reductions redundant irredundant
c         MB    restarts     trail     variables
c          level   conflicts    glue        remaining
c
c i  0.02  6 11  0 18  19   0 34% 0 63121 3241 12%
c i  0.02  6 12  0 19  20   0 35% 0 63121 3239 12%
c i  0.02  6 13  0 20  21   0 37% 0 63121 3237 12%
c -  0.04  5 20  1 21 300 236 77% 4 8038 3237 12%
c i  0.06  4 17  1 94 510 425 73% 5 8038 3234 12%
c i  0.06  4 17  1 94 511 425 73% 5 8038 3231 12%
c i  0.06  4 17  1 95 512 425 73% 5 8038 3228 12%
c i  0.06  4 17  1 98 523 435 73% 5 8038 3225 12%
c i  0.07  4 15  1 105 636 500 69% 5 8038 3187 12%
c -  0.08  4 12  2 105 900 410 69% 4 7908 3187 12%
c i  0.09  4 11  2 105 965 453 68% 4 7908 2677 10%
c i  0.09  4 11  2 105 981 461 67% 4 7908 2669 10%
c }  0.09  4 11  2 105 1001 477 67% 4 7908 2669 10%
c [  0.09  4 0  2 105 1001 477 0% 0 7908 2669 10%
c a  0.09  4 0  2 105 1001 150 0% 0 5339 2315 9%
c O  0.09  4 3  2 105 1002 151 48% 1 5339 2315 9%
c i  0.09  4 3  2 105 1008 154 51% 2 5339 2279 9%
c i  0.09  4 4  2 105 1032 161 51% 2 5339 2273 9%
c ]  0.09  4 4  2 105 1044 166 45% 2 5339 2258 9%
c 0  0.09  4 11  2 105 1044 166 67% 4 5339 2258 9%
c
c ---- [ result ] ------------------------------------------------------------
c
s UNSATISFIABLE
c
c ---- [ profiling ] ---------------------------------------------------------
c
c           0.07   79.84 %  search
c           0.07   78.09 %  focused
c           0.02   19.42 %  parse
c           0.00    4.29 %  reduce
c           0.00    1.66 %  stable
c           0.00    0.58 %  autarky
c           0.00    0.58 %  simplify
c =============================================
c           0.09  100.00 %  total
c
c ---- [ statistics ] --------------------------------------------------------
c
c conflicts:                             1044            11419.32 per second
c decisions:                             2421                2.32 per conflict
c propagations:                       1115772         12204366    per second
c reductions:                               2              522    interval
c rephased:                                 1             1044    interval
c restarts:                               105                9.94 interval
c
c ---- [ resources ] ---------------------------------------------------------
c
c maximum-resident-set-size:          7106560 bytes          7 MB
c process-time:                             0s               0.09 seconds
c
c ---- [ shutting down ] -----------------------------------------------------
c
c exit 20
*** qbfcert: VALID
c array.sh: end:      Thu Feb 18 10:08:25 CET 2021
